NAME : P-n101-k4.681.tour
COMMENT : Cost = 0_681
COMMENT : Found by LKH [Keld Helsgaun] Wed Sep 13 11:56:29 2017
TYPE : TOUR
DIMENSION : 104
TOUR_SECTION
1
7
97
100
94
60
93
38
99
101
92
86
62
17
87
39
45
15
43
44
16
58
3
88
98
96
95
104
29
77
78
4
80
79
35
36
66
72
67
21
33
91
64
65
50
37
48
47
9
46
18
85
6
61
84
19
90
103
28
70
2
51
34
82
10
52
31
71
11
63
12
20
49
83
8
89
32
53
102
54
27
13
81
69
30
25
55
56
26
5
40
68
24
57
76
42
23
75
73
74
22
41
59
14
-1
EOF
